(set-info :source |printed by MathSAT|)

1 (5) @37:
(assert true)

5 (11) @52:
(assert true)

11 (15,14,13,12) @52:
(assert true)

15 () @407:
(assert true)

14 () @408:
(assert true)

13 () @52:
(assert true)

12 () @409:
(assert true)

